min: c;

c = 2.83388659415194 * u1_t7_h4 + 3.78669502342799 * u1_t7_h5 + 4.10825762654695 * u1_t5_h6 + 4.10825762654695 * u1_t7_h6 + 4.02906412699088 * u1_t5_h7 + 4.02906412699088 * u1_t7_h7 + 4.02906412699088 * u1_t9_h7 + 5.77380552009481 * u1_t5_h8 + 5.77380552009481 * u1_t7_h8 + 5.77380552009481 * u1_t9_h8 + 5.77380552009481 * u1_t10_h8 + 4.77899552064733 * u1_t5_h9 + 4.77899552064733 * u1_t7_h9 + 4.77899552064733 * u1_t9_h9 + 4.77899552064733 * u1_t10_h9 + 5.35831108741521 * u1_t5_h10 + 5.35831108741521 * u1_t7_h10 + 5.35831108741521 * u1_t9_h10 + 5.35831108741521 * u1_t10_h10 + 4.04064348070935 * u1_t5_h11 + 4.04064348070935 * u1_t9_h11 + 4.04064348070935 * u1_t10_h11 + 6.40107569855414 * u1_t4_h12 + 6.40107569855414 * u1_t5_h12 + 6.40107569855414 * u1_t8_h12 + 6.40107569855414 * u1_t9_h12 + 6.40107569855414 * u1_t10_h12 + 4.05515428870401 * u1_t4_h13 + 4.05515428870401 * u1_t8_h13 + 4.05515428870401 * u1_t9_h13 + 4.05515428870401 * u1_t10_h13 + 5.42523174130584 * u1_t4_h14 + 5.42523174130584 * u1_t8_h14 + 5.42523174130584 * u1_t9_h14 + 5.42523174130584 * u1_t10_h14 + 5.88957136110413 * u1_t4_h15 + 5.88957136110413 * u1_t8_h15 + 5.89286631222572 * u1_t4_h16 + 5.89286631222572 * u1_t8_h16 + 5.90087723282768 * u1_t4_h17 + 5.90087723282768 * u1_t8_h17 + 6.58618015741137 * u1_t2_h18 + 6.58618015741137 * u1_t4_h18 + 6.58618015741137 * u1_t6_h18 + 6.58618015741137 * u1_t8_h18 + 5.82673916352951 * u1_t2_h19 + 5.82673916352951 * u1_t3_h19 + 5.82673916352951 * u1_t4_h19 + 5.82673916352951 * u1_t6_h19 + 5.42485489027962 * u1_t1_h20 + 5.42485489027962 * u1_t2_h20 + 5.42485489027962 * u1_t3_h20 + 5.42485489027962 * u1_t4_h20 + 5.42485489027962 * u1_t6_h20 + 5.75288594312889 * u1_t1_h21 + 5.75288594312889 * u1_t2_h21 + 5.75288594312889 * u1_t3_h21 + 5.35163581119166 * u1_t1_h22 + 5.35163581119166 * u1_t2_h22 + 5.93089443298634 * u1_t1_h23 + 5.93089443298634 * u1_t2_h23;
0 <= u1_t1_h20 <= 1;
0 <= u1_t1_h21 <= 1;
0 <= u1_t1_h22 <= 1;
0 <= u1_t1_h23 <= 1;
u1_t1_h20 + u1_t1_h21 + u1_t1_h22 + u1_t1_h23 = 1;
0 <= u1_t2_h18 <= 1;
0 <= u1_t2_h19 <= 1;
0 <= u1_t2_h20 <= 1;
0 <= u1_t2_h21 <= 1;
0 <= u1_t2_h22 <= 1;
0 <= u1_t2_h23 <= 1;
u1_t2_h18 + u1_t2_h19 + u1_t2_h20 + u1_t2_h21 + u1_t2_h22 + u1_t2_h23 = 2;
0 <= u1_t3_h19 <= 1;
0 <= u1_t3_h20 <= 1;
0 <= u1_t3_h21 <= 1;
u1_t3_h19 + u1_t3_h20 + u1_t3_h21 = 1;
0 <= u1_t4_h12 <= 1;
0 <= u1_t4_h13 <= 1;
0 <= u1_t4_h14 <= 1;
0 <= u1_t4_h15 <= 1;
0 <= u1_t4_h16 <= 1;
0 <= u1_t4_h17 <= 1;
0 <= u1_t4_h18 <= 1;
0 <= u1_t4_h19 <= 1;
0 <= u1_t4_h20 <= 1;
u1_t4_h12 + u1_t4_h13 + u1_t4_h14 + u1_t4_h15 + u1_t4_h16 + u1_t4_h17 + u1_t4_h18 + u1_t4_h19 + u1_t4_h20 = 3;
0 <= u1_t5_h6 <= 1;
0 <= u1_t5_h7 <= 1;
0 <= u1_t5_h8 <= 1;
0 <= u1_t5_h9 <= 1;
0 <= u1_t5_h10 <= 1;
0 <= u1_t5_h11 <= 1;
0 <= u1_t5_h12 <= 1;
u1_t5_h6 + u1_t5_h7 + u1_t5_h8 + u1_t5_h9 + u1_t5_h10 + u1_t5_h11 + u1_t5_h12 = 3;
0 <= u1_t6_h18 <= 1;
0 <= u1_t6_h19 <= 1;
0 <= u1_t6_h20 <= 1;
u1_t6_h18 + u1_t6_h19 + u1_t6_h20 = 2;
0 <= u1_t7_h4 <= 1;
0 <= u1_t7_h5 <= 1;
0 <= u1_t7_h6 <= 1;
0 <= u1_t7_h7 <= 1;
0 <= u1_t7_h8 <= 1;
0 <= u1_t7_h9 <= 1;
0 <= u1_t7_h10 <= 1;
u1_t7_h4 + u1_t7_h5 + u1_t7_h6 + u1_t7_h7 + u1_t7_h8 + u1_t7_h9 + u1_t7_h10 = 2;
0 <= u1_t8_h12 <= 1;
0 <= u1_t8_h13 <= 1;
0 <= u1_t8_h14 <= 1;
0 <= u1_t8_h15 <= 1;
0 <= u1_t8_h16 <= 1;
0 <= u1_t8_h17 <= 1;
0 <= u1_t8_h18 <= 1;
u1_t8_h12 + u1_t8_h13 + u1_t8_h14 + u1_t8_h15 + u1_t8_h16 + u1_t8_h17 + u1_t8_h18 = 2;
0 <= u1_t9_h7 <= 1;
0 <= u1_t9_h8 <= 1;
0 <= u1_t9_h9 <= 1;
0 <= u1_t9_h10 <= 1;
0 <= u1_t9_h11 <= 1;
0 <= u1_t9_h12 <= 1;
0 <= u1_t9_h13 <= 1;
0 <= u1_t9_h14 <= 1;
u1_t9_h7 + u1_t9_h8 + u1_t9_h9 + u1_t9_h10 + u1_t9_h11 + u1_t9_h12 + u1_t9_h13 + u1_t9_h14 = 3;
0 <= u1_t10_h8 <= 1;
0 <= u1_t10_h9 <= 1;
0 <= u1_t10_h10 <= 1;
0 <= u1_t10_h11 <= 1;
0 <= u1_t10_h12 <= 1;
0 <= u1_t10_h13 <= 1;
0 <= u1_t10_h14 <= 1;
u1_t10_h8 + u1_t10_h9 + u1_t10_h10 + u1_t10_h11 + u1_t10_h12 + u1_t10_h13 + u1_t10_h14 = 3;
